c A SAT instance generated from a 3-CNF formula that had 28 clauses and 7 variables
p cnf 7 28
-7 -5 2 0
5 -7 3 0
2 -5 4 0
2 -3 4 0
5 6 3 0
6 -7 1 0
7 6 -5 0
-3 4 6 0
-5 6 2 0
-4 -3 -2 0
-6 -2 7 0
-1 5 3 0
-3 -1 7 0
-4 -6 -7 0
-2 -3 -4 0
-6 1 -3 0
-1 6 -4 0
-1 -6 7 0
6 1 3 0
5 3 6 0
2 3 -7 0
-1 -3 5 0
-1 5 4 0
-5 1 6 0
4 6 7 0
2 -5 4 0
-5 2 4 0
-2 1 5 0
